=1
=2
=0IBM ILOG CPLEX   42.1.0 cb854401 Feb 1, 2023           LEG x86 64bit/Linux    
=1
--- GAMS/Cplex licensed for continuous and discrete problems.
=2
=C
=1
=CReading parameter(s) from "/storage/home/ejm6426/scratch/scRBA/parameterization/kapp/datasets/Yu2021_chemoClimNH4_010_using_rtRBA_methods/min_flux_violation/cplex.opt"
=C>>  optcr = 1E-12
=C>>  optca = 1E-12
=C>>  eprhs = 1E-9
=C>> 
=CFinished reading from "/storage/home/ejm6426/scratch/scRBA/parameterization/kapp/datasets/Yu2021_chemoClimNH4_010_using_rtRBA_methods/min_flux_violation/cplex.opt"
=2
=C
=1
--- GMO setup time: 0.00s
=2
=1
--- Space for names approximately 0.48 Mb
=2
=1
--- Use option 'names no' to turn use of names off
=2
=1
--- GMO memory 5.78 Mb (peak 5.86 Mb)
=2
=1
--- Dictionary memory 0.00 Mb
=2
=1
--- Cplex 22.1.1.0 link memory 0.26 Mb (peak 1.91 Mb)
=2
=1
--- Starting Cplex
=2
=C
Version identifier: 22.1.1.0 | 2022-11-28 | 9160aff4d
CPXPARAM_Advance                                 0
CPXPARAM_Threads                                 1
CPXPARAM_MIP_Display                             4
CPXPARAM_MIP_Pool_Capacity                       0
CPXPARAM_Simplex_Limits_Iterations               1000000
CPXPARAM_Simplex_Tolerances_Feasibility          1.0000000000000001e-09
CPXPARAM_TimeLimit                               1000
CPXPARAM_MIP_Tolerances_AbsMIPGap                9.9999999999999998e-13
CPXPARAM_MIP_Tolerances_MIPGap                   9.9999999999999998e-13
Tried aggregator 1 time.
LP Presolve eliminated 2364 rows and 6011 columns.
Aggregator did 620 substitutions.
Reduced LP has 1646 rows, 4051 columns, and 41274 nonzeros.
Presolve time = 0.08 sec. (22.99 ticks)

Iteration log . . .
Iteration:     1   Dual objective     =             0.000000
Perturbation started.
Iteration:   101   Dual objective     =             0.000000
Iteration:   218   Dual objective     =             7.914182
Iteration:   310   Dual objective     =             9.133989
Iteration:   394   Dual objective     =             9.345285
Iteration:   497   Dual objective     =             9.345402
Iteration:   624   Dual objective     =             9.345648
Iteration:   722   Dual objective     =             9.345868
Iteration:   797   Dual objective     =       2470558.248248
Iteration:   918   Dual objective     =     373986189.479632
Removing perturbation.
Iteration:   924   Scaled dual infeas =     275168375.197947
Iteration:  1040   Dual objective     = -35052342721075.582031
Iteration:  1198   Dual objective     = -2263379490875.473633
Iteration:  1351   Dual objective     = -285054964763.979248
Iteration:  1521   Dual objective     =  -18517982877.287895
Iteration:  1677   Dual objective     =  -18517982391.243675
Iteration:  1824   Dual objective     =  -17086770089.000914
Iteration:  1993   Dual objective     =  -12862655099.543591
Iteration:  2136   Dual objective     =   -6956768003.291266
Iteration:  2286   Dual objective     =      -1453087.364964
Markowitz threshold set to 0.1
Iteration:  2379   Dual objective     =       2254148.920601
Iteration:  2504   Scaled dual infeas =             0.000021
Iteration:  2507   Scaled dual infeas =             0.000000
Iteration:  2508   Dual objective     =    4728387316.877221
Removing shift (709).
=C
=1
--- LP status (3): infeasible.
=2
=1
--- Cplex Time: 0.51sec (det. 246.64 ticks)

=2
=C
=CModel has been proven infeasible
=C
